p cnf 153 833
53 70 0
65 69 75 76 0
40 49 61 87 0
46 149 0
56 57 74 0
60 80 84 92 0
73 88 89 96 0
101 129 132 0
63 107 0
42 48 0
43 51 0
62 116 0
36 66 0
55 85 94 0
32 139 0
27 34 82 142 0
68 72 0
38 64 77 0
39 44 0
24 31 0
19 21 147 0
58 71 81 91 0
54 93 97 99 0
102 104 0
33 106 0
108 112 0
26 50 79 113 0
41 45 47 114 115 0
37 52 117 118 0
25 120 122 0
20 123 126 0
59 86 0
95 98 0
90 100 103 127 0
128 131 134 135 0
137 138 0
109 140 144 0
83 141 143 0
-96 -101 0
-63 -96 0
-96 -110 0
-63 -101 0
-101 -110 0
-63 -110 0
-116 -119 0
-66 -116 0
-55 -116 0
-66 -119 0
-55 -119 0
-55 -66 0
-142 -145 0
-64 -145 0
-39 -145 0
-21 -145 0
-64 -142 0
-39 -142 0
-21 -142 0
-39 -64 0
-21 -64 0
-21 -39 0
-71 -93 0
-71 -130 0
-71 -106 0
-35 -71 0
-93 -130 0
-93 -106 0
-35 -93 0
-106 -130 0
-35 -130 0
-35 -106 0
-52 -114 0
-114 -146 0
-20 -114 0
-100 -114 0
-52 -146 0
-20 -52 0
-52 -100 0
-20 -146 0
-100 -146 0
-20 -100 0
-96 -116 0
-96 -145 0
-71 -96 0
-96 -114 0
-116 -145 0
-71 -116 0
-114 -116 0
-71 -145 0
-114 -145 0
-71 -114 0
-101 -119 0
-101 -142 0
-93 -101 0
-52 -101 0
-119 -142 0
-93 -119 0
-52 -119 0
-93 -142 0
-52 -142 0
-52 -93 0
-63 -66 0
-63 -64 0
-63 -130 0
-63 -146 0
-64 -66 0
-66 -130 0
-66 -146 0
-64 -130 0
-64 -146 0
-130 -146 0
-55 -110 0
-39 -110 0
-106 -110 0
-20 -110 0
-39 -55 0
-55 -106 0
-20 -55 0
-39 -106 0
-20 -39 0
-20 -106 0
-21 -35 0
-21 -100 0
-35 -100 0
-80 -148 0
-77 -111 0
-31 -111 0
-67 -111 0
-31 -77 0
-67 -77 0
-31 -67 0
-58 -133 0
-29 -58 0
-26 -58 0
-29 -133 0
-26 -133 0
-26 -29 0
-23 -41 0
-41 -95 0
-41 -128 0
-23 -95 0
-23 -128 0
-95 -128 0
-58 -111 0
-41 -111 0
-41 -58 0
-77 -133 0
-23 -77 0
-23 -133 0
-31 -148 0
-29 -148 0
-95 -148 0
-29 -31 0
-31 -95 0
-29 -95 0
-67 -80 0
-26 -80 0
-80 -128 0
-26 -67 0
-67 -128 0
-26 -128 0
-82 -150 0
-82 -125 0
-125 -150 0
-54 -108 0
-54 -79 0
-79 -108 0
-37 -59 0
-37 -131 0
-59 -131 0
-54 -82 0
-37 -82 0
-37 -54 0
-108 -150 0
-59 -150 0
-59 -108 0
-79 -125 0
-125 -131 0
-79 -131 0
-61 -69 0
-46 -69 0
-69 -152 0
-46 -61 0
-61 -152 0
-46 -152 0
-121 -153 0
-36 -121 0
-85 -121 0
-36 -153 0
-85 -153 0
-36 -85 0
-18 -123 0
-109 -141 0
-69 -121 0
-69 -109 0
-109 -121 0
-61 -153 0
-61 -141 0
-141 -153 0
-36 -46 0
-18 -46 0
-18 -36 0
-85 -152 0
-123 -152 0
-85 -123 0
-53 -65 0
-40 -53 0
-53 -92 0
-40 -65 0
-65 -92 0
-40 -92 0
-88 -129 0
-88 -105 0
-51 -88 0
-105 -129 0
-51 -129 0
-51 -105 0
-17 -27 0
-17 -72 0
-27 -72 0
-137 -140 0
-83 -137 0
-83 -140 0
-53 -88 0
-17 -53 0
-53 -137 0
-17 -88 0
-88 -137 0
-17 -137 0
-65 -129 0
-27 -65 0
-65 -140 0
-27 -129 0
-129 -140 0
-27 -140 0
-40 -105 0
-40 -72 0
-40 -83 0
-72 -105 0
-83 -105 0
-72 -83 0
-51 -92 0
-70 -76 0
-49 -70 0
-30 -70 0
-57 -70 0
-70 -84 0
-49 -76 0
-30 -76 0
-57 -76 0
-76 -84 0
-30 -49 0
-49 -57 0
-49 -84 0
-30 -57 0
-30 -84 0
-57 -84 0
-89 -132 0
-16 -89 0
-28 -89 0
-42 -89 0
-43 -89 0
-16 -132 0
-28 -132 0
-42 -132 0
-43 -132 0
-16 -28 0
-16 -42 0
-16 -43 0
-28 -42 0
-28 -43 0
-42 -43 0
-22 -62 0
-15 -62 0
-62 -94 0
-14 -62 0
-32 -62 0
-15 -22 0
-22 -94 0
-14 -22 0
-22 -32 0
-15 -94 0
-14 -15 0
-15 -32 0
-14 -94 0
-32 -94 0
-14 -32 0
-91 -97 0
-91 -102 0
-13 -91 0
-91 -113 0
-97 -102 0
-13 -97 0
-97 -113 0
-13 -102 0
-102 -113 0
-13 -113 0
-115 -117 0
-115 -120 0
-115 -127 0
-115 -134 0
-117 -120 0
-117 -127 0
-117 -134 0
-120 -127 0
-120 -134 0
-127 -134 0
-138 -144 0
-138 -143 0
-143 -144 0
-70 -89 0
-62 -70 0
-70 -91 0
-70 -115 0
-70 -138 0
-62 -89 0
-89 -91 0
-89 -115 0
-89 -138 0
-62 -91 0
-62 -115 0
-62 -138 0
-91 -115 0
-91 -138 0
-115 -138 0
-76 -132 0
-22 -76 0
-76 -97 0
-76 -117 0
-76 -144 0
-22 -132 0
-97 -132 0
-117 -132 0
-132 -144 0
-22 -97 0
-22 -117 0
-22 -144 0
-97 -117 0
-97 -144 0
-117 -144 0
-16 -49 0
-15 -49 0
-49 -102 0
-49 -120 0
-49 -143 0
-15 -16 0
-16 -102 0
-16 -120 0
-16 -143 0
-15 -102 0
-15 -120 0
-15 -143 0
-102 -120 0
-102 -143 0
-120 -143 0
-28 -30 0
-30 -94 0
-28 -94 0
-42 -57 0
-14 -57 0
-13 -57 0
-57 -127 0
-14 -42 0
-13 -42 0
-42 -127 0
-13 -14 0
-14 -127 0
-13 -127 0
-43 -84 0
-32 -84 0
-84 -113 0
-84 -134 0
-32 -43 0
-43 -113 0
-43 -134 0
-32 -113 0
-32 -134 0
-113 -134 0
-12 -149 0
-124 -149 0
-74 -149 0
-12 -124 0
-12 -74 0
-74 -124 0
-11 -107 0
-78 -107 0
-48 -107 0
-11 -78 0
-11 -48 0
-48 -78 0
-10 -38 0
-10 -44 0
-10 -24 0
-10 -147 0
-38 -44 0
-24 -38 0
-38 -147 0
-24 -44 0
-44 -147 0
-24 -147 0
-9 -81 0
-33 -81 0
-8 -81 0
-7 -81 0
-9 -33 0
-8 -9 0
-7 -9 0
-8 -33 0
-7 -33 0
-7 -8 0
-6 -47 0
-47 -126 0
-47 -98 0
-47 -103 0
-6 -126 0
-6 -98 0
-6 -103 0
-98 -126 0
-103 -126 0
-98 -103 0
-10 -81 0
-10 -47 0
-47 -81 0
-107 -149 0
-38 -149 0
-9 -149 0
-6 -149 0
-38 -107 0
-9 -107 0
-6 -107 0
-9 -38 0
-6 -38 0
-6 -9 0
-11 -12 0
-12 -44 0
-12 -33 0
-12 -126 0
-11 -44 0
-11 -33 0
-11 -126 0
-33 -44 0
-44 -126 0
-33 -126 0
-78 -124 0
-24 -124 0
-8 -124 0
-98 -124 0
-24 -78 0
-8 -78 0
-78 -98 0
-8 -24 0
-24 -98 0
-8 -98 0
-48 -74 0
-74 -147 0
-7 -74 0
-74 -103 0
-48 -147 0
-7 -48 0
-48 -103 0
-7 -147 0
-103 -147 0
-7 -103 0
-5 -73 0
-25 -45 0
-45 -73 0
-5 -25 0
-75 -87 0
-56 -75 0
-60 -75 0
-56 -87 0
-60 -87 0
-56 -60 0
-3 -4 0
-4 -136 0
-4 -139 0
-3 -136 0
-3 -139 0
-136 -139 0
-34 -68 0
-34 -151 0
-19 -34 0
-2 -34 0
-68 -151 0
-19 -68 0
-2 -68 0
-19 -151 0
-2 -151 0
-2 -19 0
-99 -104 0
-99 -112 0
-1 -99 0
-50 -99 0
-104 -112 0
-1 -104 0
-50 -104 0
-1 -112 0
-50 -112 0
-1 -50 0
-118 -122 0
-86 -118 0
-90 -118 0
-118 -135 0
-86 -122 0
-90 -122 0
-122 -135 0
-86 -90 0
-86 -135 0
-90 -135 0
-4 -75 0
-34 -75 0
-75 -99 0
-75 -118 0
-4 -34 0
-4 -99 0
-4 -118 0
-34 -99 0
-34 -118 0
-99 -118 0
-3 -87 0
-68 -87 0
-87 -104 0
-87 -122 0
-3 -68 0
-3 -104 0
-3 -122 0
-68 -104 0
-68 -122 0
-104 -122 0
-112 -151 0
-86 -151 0
-86 -112 0
-56 -136 0
-19 -56 0
-1 -56 0
-56 -90 0
-19 -136 0
-1 -136 0
-90 -136 0
-1 -19 0
-19 -90 0
-1 -90 0
-60 -139 0
-2 -60 0
-50 -60 0
-60 -135 0
-2 -139 0
-50 -139 0
-135 -139 0
-2 -50 0
-2 -135 0
-50 -135 0
-96 -101 0
-96 -116 0
-96 -119 0
-101 -116 0
-101 -119 0
-116 -119 0
-61 -69 0
-69 -121 0
-69 -153 0
-61 -121 0
-61 -153 0
-121 -153 0
-53 -65 0
-40 -53 0
-53 -88 0
-53 -129 0
-53 -105 0
-40 -65 0
-65 -88 0
-65 -129 0
-65 -105 0
-40 -88 0
-40 -129 0
-40 -105 0
-88 -129 0
-88 -105 0
-105 -129 0
-70 -76 0
-49 -70 0
-70 -89 0
-70 -132 0
-16 -70 0
-62 -70 0
-22 -70 0
-15 -70 0
-49 -76 0
-76 -89 0
-76 -132 0
-16 -76 0
-62 -76 0
-22 -76 0
-15 -76 0
-49 -89 0
-49 -132 0
-16 -49 0
-49 -62 0
-22 -49 0
-15 -49 0
-89 -132 0
-16 -89 0
-62 -89 0
-22 -89 0
-15 -89 0
-16 -132 0
-62 -132 0
-22 -132 0
-15 -132 0
-16 -62 0
-16 -22 0
-15 -16 0
-22 -62 0
-15 -62 0
-15 -22 0
-5 -73 0
-75 -87 0
-4 -75 0
-3 -75 0
-4 -87 0
-3 -87 0
-3 -4 0
-63 -110 0
-63 -66 0
-55 -63 0
-66 -110 0
-55 -110 0
-55 -66 0
-46 -152 0
-36 -46 0
-46 -85 0
-36 -152 0
-85 -152 0
-36 -85 0
-28 -30 0
-30 -94 0
-28 -94 0
-12 -149 0
-107 -149 0
-11 -149 0
-12 -107 0
-11 -12 0
-11 -107 0
-80 -148 0
-51 -92 0
-57 -84 0
-42 -57 0
-43 -57 0
-14 -57 0
-32 -57 0
-42 -84 0
-43 -84 0
-14 -84 0
-32 -84 0
-42 -43 0
-14 -42 0
-32 -42 0
-14 -43 0
-32 -43 0
-14 -32 0
-74 -124 0
-78 -124 0
-48 -124 0
-74 -78 0
-48 -74 0
-48 -78 0
-56 -60 0
-56 -136 0
-56 -139 0
-60 -136 0
-60 -139 0
-136 -139 0
-142 -145 0
-71 -145 0
-93 -145 0
-114 -145 0
-52 -145 0
-71 -142 0
-93 -142 0
-114 -142 0
-52 -142 0
-71 -93 0
-71 -114 0
-52 -71 0
-93 -114 0
-52 -93 0
-52 -114 0
-58 -111 0
-41 -111 0
-41 -58 0
-54 -82 0
-37 -82 0
-37 -54 0
-17 -27 0
-17 -72 0
-27 -72 0
-91 -97 0
-91 -102 0
-91 -115 0
-91 -117 0
-91 -120 0
-97 -102 0
-97 -115 0
-97 -117 0
-97 -120 0
-102 -115 0
-102 -117 0
-102 -120 0
-115 -117 0
-115 -120 0
-117 -120 0
-10 -81 0
-10 -47 0
-47 -81 0
-25 -45 0
-34 -68 0
-34 -99 0
-34 -104 0
-34 -118 0
-34 -122 0
-68 -99 0
-68 -104 0
-68 -118 0
-68 -122 0
-99 -104 0
-99 -118 0
-99 -122 0
-104 -118 0
-104 -122 0
-118 -122 0
-39 -64 0
-64 -130 0
-64 -106 0
-64 -146 0
-20 -64 0
-39 -130 0
-39 -106 0
-39 -146 0
-20 -39 0
-106 -130 0
-130 -146 0
-20 -130 0
-106 -146 0
-20 -106 0
-20 -146 0
-77 -133 0
-23 -77 0
-23 -133 0
-108 -150 0
-59 -150 0
-59 -108 0
-18 -123 0
-38 -44 0
-9 -38 0
-33 -38 0
-6 -38 0
-38 -126 0
-9 -44 0
-33 -44 0
-6 -44 0
-44 -126 0
-9 -33 0
-6 -9 0
-9 -126 0
-6 -33 0
-33 -126 0
-6 -126 0
-112 -151 0
-86 -151 0
-86 -112 0
-21 -35 0
-21 -100 0
-35 -100 0
-31 -67 0
-29 -31 0
-26 -31 0
-31 -95 0
-31 -128 0
-29 -67 0
-26 -67 0
-67 -95 0
-67 -128 0
-26 -29 0
-29 -95 0
-29 -128 0
-26 -95 0
-26 -128 0
-95 -128 0
-79 -125 0
-125 -131 0
-79 -131 0
-13 -113 0
-13 -127 0
-13 -134 0
-113 -127 0
-113 -134 0
-127 -134 0
-24 -147 0
-8 -24 0
-7 -24 0
-24 -98 0
-24 -103 0
-8 -147 0
-7 -147 0
-98 -147 0
-103 -147 0
-7 -8 0
-8 -98 0
-8 -103 0
-7 -98 0
-7 -103 0
-98 -103 0
-2 -19 0
-1 -19 0
-19 -50 0
-19 -90 0
-19 -135 0
-1 -2 0
-2 -50 0
-2 -90 0
-2 -135 0
-1 -50 0
-1 -90 0
-1 -135 0
-50 -90 0
-50 -135 0
-90 -135 0
-109 -141 0
-137 -140 0
-83 -137 0
-83 -140 0
-138 -144 0
-138 -143 0
-143 -144 0
